5.15 -3.56
5.36 -0.1
28.56 -13.36
8.59 38.48
12.5 45.02
29.38 35.01
15.18 38.55
23.58 32.47
10.25 45.01
9.21 34.31
4.24 18.31
13.21 -16.4
12.38 -8.02
30.08 31.24
4.49 -52.22
9.34 -13.37
6.21 2.23
14.45 42.59
14.45 -17.3
4.01 9.43
19.08 30.26
0.03 32.26
8.37 -13.12
28.27 -13.52
24.57 10.1
7.09 41.43
21.3 39.12
11.33 43.1
12.03 8.31
15.36 32.33
0.27 9.25
6.1 1.15
6.35 3.2
27.56 -15.23
6.1 1.15
25.41 32.43
24.31 39.42
12.08 15.02
13.29 2.1
18.06 -15.57
12.21 -1.31
4.52 7.02
6.14 -10.22
15.29 44.13
27.0 14.27
16.45 -22.57
28.29 -16.2
28.29 -16.2
22.49 5.27
0.23 6.43
